data;
set nodes
NodeInput_ID2_0
NodeCast_ID3_1
NodeReinterpret_ID7_2
NodeAnd_ID6_3
NodeReinterpret_ID9_4
NodeInput_ID10_5
NodeCast_ID11_6
NodeReinterpret_ID15_7
NodeAnd_ID14_8
NodeReinterpret_ID17_9
NodeInput_ID18_10
NodeTriAdd_ID41_11
NodePrintf_ID23_12
NodeOutput_ID31_13
NodeCounterV1_ID34_14
NodeOutputMappedReg_ID36_15
NodeEq_ID39_16
NodeFlush_ID37_17
;
set inputsLeadingToFlush
;
set nodesAfterFlush
NodeInput_ID2_0
NodeInput_ID10_5
NodeInput_ID18_10
NodePrintf_ID23_12
NodeOutput_ID31_13
NodeOutputMappedReg_ID36_15
;
set iDescs
InputDesc_18
InputDesc_19
InputDesc_20
InputDesc_21
InputDesc_22
InputDesc_23
InputDesc_24
InputDesc_25
InputDesc_26
InputDesc_27
InputDesc_28
InputDesc_29
InputDesc_30
InputDesc_31
InputDesc_32
InputDesc_33
InputDesc_34
InputDesc_35
InputDesc_36
InputDesc_37
;
set oDescs
OutputDesc_38
OutputDesc_39
OutputDesc_40
OutputDesc_41
OutputDesc_42
OutputDesc_43
OutputDesc_44
OutputDesc_45
OutputDesc_46
OutputDesc_47
OutputDesc_48
OutputDesc_49
OutputDesc_50
OutputDesc_51
OutputDesc_52
;
set constrainedPairs
;
param flushNode := NodeFlush_ID37_17;
param flushNodeStartLatency := 3;
param inputFlushDistanceFactor := 0;
param : getChild getParent getODesc getLatency :=
InputDesc_18 NodeCast_ID3_1 NodeInput_ID2_0 OutputDesc_38 5
InputDesc_19 NodeReinterpret_ID7_2 NodeCast_ID3_1 OutputDesc_39 0
InputDesc_20 NodeAnd_ID6_3 NodeReinterpret_ID7_2 OutputDesc_40 0
InputDesc_21 NodeReinterpret_ID9_4 NodeAnd_ID6_3 OutputDesc_41 0
InputDesc_22 NodeInput_ID10_5 NodeReinterpret_ID9_4 OutputDesc_42 0
InputDesc_23 NodeCast_ID11_6 NodeInput_ID2_0 OutputDesc_38 5
InputDesc_24 NodeReinterpret_ID15_7 NodeCast_ID11_6 OutputDesc_44 0
InputDesc_25 NodeAnd_ID14_8 NodeReinterpret_ID15_7 OutputDesc_45 0
InputDesc_26 NodeReinterpret_ID17_9 NodeAnd_ID14_8 OutputDesc_46 0
InputDesc_27 NodeInput_ID18_10 NodeReinterpret_ID17_9 OutputDesc_47 0
InputDesc_28 NodeTriAdd_ID41_11 NodeInput_ID10_5 OutputDesc_43 5
InputDesc_29 NodeTriAdd_ID41_11 NodeInput_ID18_10 OutputDesc_48 5
InputDesc_30 NodePrintf_ID23_12 NodeInput_ID10_5 OutputDesc_43 5
InputDesc_31 NodePrintf_ID23_12 NodeInput_ID18_10 OutputDesc_48 5
InputDesc_32 NodePrintf_ID23_12 NodeInput_ID2_0 OutputDesc_38 5
InputDesc_33 NodePrintf_ID23_12 NodeTriAdd_ID41_11 OutputDesc_49 1
InputDesc_34 NodeOutput_ID31_13 NodeTriAdd_ID41_11 OutputDesc_49 1
InputDesc_35 NodeOutputMappedReg_ID36_15 NodeCounterV1_ID34_14 OutputDesc_50 0
InputDesc_36 NodeEq_ID39_16 NodeCounterV1_ID34_14 OutputDesc_50 0
InputDesc_37 NodeFlush_ID37_17 NodeEq_ID39_16 OutputDesc_52 1
;
param : getWidth :=
OutputDesc_38 32
OutputDesc_39 1
OutputDesc_40 1
OutputDesc_41 1
OutputDesc_42 1
OutputDesc_43 32
OutputDesc_44 1
OutputDesc_45 1
OutputDesc_46 1
OutputDesc_47 1
OutputDesc_48 32
OutputDesc_49 32
OutputDesc_50 48
OutputDesc_51 1
OutputDesc_52 1
;
param : getPairConstraint :=
;
set autoVars :=
;
param getAutoVarCoeff :

:=
;
param getAutoVarUserMinCoeffAutoVar :

:=
;
param getAutoVarUserMaxCoeffAutoVar :

:=
;
param getAutoVarUserMinCoeffMeasurement :

:=
;
param getAutoVarUserMaxCoeffMeasurement :

:=
;
param getAutoVarUserMin :=
;
param getAutoVarUserMax :=
;
set measurements := 
;
param getMeasurementStart := 
;
param getMeasurementEnd := 
;
param getMeasurementCoeff :

:=
;
end;
